3661449
192,126,30,187,78,220,221,215,179,103,202,169,170,223,222,8,141,149,32,145,152,58,81,114,205,69,65,91,105,181,121,201,104,11,227,3,157,79,130,76,94,85,23,189,92,148,131,40,55,52,102,183,39,88,95,96,206,123,72,153,199,200,93,25,75,127,31,71,70,82,42,73,146,147,172,208,173,51,194,168,119,87,171,212,56,53,174,17,184,46,47,45,64,186,185,140,139,134,38,198,35,209,90,37,5,128,108,101,36,178,34,100,61,111,132,161,19,48,144,143,67,107,63,43,29,164,163,125,118,180,135,84,166,122,22,225,217,226,124,12,89,20,165,188,177,159,158,14,117,27,150,21,155,210,190,176,110,167,44,112,97,41,113,10,138,219,193,224,195,86,160,115,106,182,0,197,204,2,15,228,129,49,26,54,154,156,66,7,116,191,33,80,77,214,74,216,60,229,196,6,59,207,162,62,136,137,28,83,175,16,142,213,18,13,151,68,50,4,133,109,9,24,1,203,211,99,98,120,218,57
